
--- Job bchfcnet.gms Start 02/09/22 15:12:26 34.3.0 rac355f3 WEX-WEI x86 64bit/MS Windows
--- Applying:
    C:\GAMS\34\gmsprmNT.txt
--- GAMS Parameters defined
    Input C:\Users\dekhi\Desktop\gamsworld\FCNetLib\test\bchfcnet.gms
    PageSize 0
    ScrDir C:\Users\dekhi\Desktop\gamsworld\FCNetLib\test\225a\
    SysDir C:\GAMS\34\
    LogOption 3
    ErrMsg 1
    ErrorLog 99
    IDE 1
    ResLim 3600
    LstTitleLeftAligned 1
Licensee: Eval License                                   S211214|0002AW-GEN
          Ostfalia Hochschule fuer angewandte Wissenschaften        DCE1645
          C:\Users\dekhi\Documents\GAMS\gamslice.txt
          License Admin: Mohamed Ali Dekhil, dekhil.medali@gmail.com       
          Evaluation license: Not for commercial or production use
GAMS 34.3.0   Copyright (C) 1987-2021 GAMS Development. All rights reserved
--- Starting compilation
--- bchfcnet.gms(34) 2 Mb
--- . decl.gms(15) 2 Mb
--- bchfcnet.gms(38) 2 Mb
--- . sp150x300c.inc(666) 3 Mb
--- bchfcnet.gms(67) 3 Mb
--- . equs.gms(20) 3 Mb
--- bchfcnet.gms(97) 3 Mb
--- call rm -f bchout_i.gdx startcut.txt startheur.txt cuthist.gdx agap.txt rgap.txt cntfail.txt
--- bchfcnet.gms(118) 3 Mb
--- Starting execution: elapsed 0:00:00.090
--- bchfcnet.gms(724) 4 Mb
--- GDX File (execute_unload) C:\Users\dekhi\Desktop\gamsworld\FCNetLib\test\net.gdx
--- bchfcnet.gms(815) 4 Mb
--- GDXin=C:\Users\dekhi\Desktop\gamsworld\FCNetLib\test\points\sp150x300c.gdx
--- GDX File (execute_load) C:\Users\dekhi\Desktop\gamsworld\FCNetLib\test\points\sp150x300c.gdx
--- Generating MIP model master
--- bchfcnet.gms(819) 4 Mb
---   451 rows  601 columns  1,801 non-zeroes
---   300 discrete-columns
--- Executing CPLEX (Solvelink=2): elapsed 0:00:00.107

IBM ILOG CPLEX   34.3.0 rac355f3 Released Feb 25, 2021 WEI x86 64bit/MS Window

--- GAMS/Cplex Link licensed for continuous and discrete problems.

Reading parameter(s) from "C:\Users\dekhi\Desktop\gamsworld\FCNetLib\test\cplex.op2"
>>  mipstart 1
Finished reading from "C:\Users\dekhi\Desktop\gamsworld\FCNetLib\test\cplex.op2"

--- Space for names approximately 0.02 Mb
--- Use option 'names no' to turn use of names off
--- GMO memory 0.62 Mb (peak 0.63 Mb)
--- Dictionary memory 0.00 Mb
--- Cplex 20.1.0.0 link memory 0.02 Mb (peak 0.07 Mb)
--- Starting Cplex

Version identifier: 20.1.0.0 | 2020-11-10 | 9bedb6d68
CPXPARAM_Threads                                 1
CPXPARAM_MIP_Display                             4
CPXPARAM_TimeLimit                               3600
CPXPARAM_MIP_Tolerances_AbsMIPGap                0
CPXPARAM_MIP_Tolerances_MIPGap                   0
Generic callback                                 0x50
Processing 1 MIP starts.
MIP start 'm1' defined solution with objective 560736.0000.
1 of 1 MIP starts provided solutions.
MIP start 'm1' defined initial solution with objective 560736.0000.
Tried aggregator 3 times.
MIP Presolve eliminated 98 rows and 80 columns.
MIP Presolve modified 105 coefficients.
Aggregator did 83 substitutions.
Reduced MIP has 269 rows, 402 columns, and 827 nonzeros.
Reduced MIP has 213 binaries, 0 generals, 0 SOSs, and 0 indicators.
Presolve time = 0.00 sec. (2.50 ticks)
Probing fixed 2 vars, tightened 0 bounds.
Probing time = 0.00 sec. (0.07 ticks)
Tried aggregator 1 time.
Detecting symmetries...
MIP Presolve eliminated 5 rows and 8 columns.
Reduced MIP has 264 rows, 393 columns, and 813 nonzeros.
Reduced MIP has 207 binaries, 0 generals, 0 SOSs, and 0 indicators.
Presolve time = 0.00 sec. (0.91 ticks)
Probing time = 0.00 sec. (0.06 ticks)
Clique table members: 11.
MIP emphasis: balance optimality and feasibility.
MIP search method: dynamic search.
Parallel mode: none, using 1 thread.
Tried aggregator 1 time.
LP Presolve eliminated 186 rows and 238 columns.
Aggregator did 29 substitutions.
Reduced LP has 49 rows, 126 columns, and 253 nonzeros.
Presolve time = 0.00 sec. (0.23 ticks)
Initializing dual steep norms . . .

Iteration log . . .
Iteration:     1   Dual objective     =        190365.417235
Initializing dual steep norms . . .
Root relaxation solution time = 0.00 sec. (0.51 ticks)

        Nodes                                         Cuts/
   Node  Left     Objective  IInf  Best Integer    Best Bound    ItCnt     Gap

*     0+    0                       560736.0000   175974.0000            68.62%
Found incumbent of value 560736.000000 after 0.02 sec. (5.67 ticks)
      0     0   413507.5679    35   560736.0000   413507.5679       46   26.26%
      0     0   517767.5289    42   560736.0000      Cuts: 86       97    7.66%
      0     0   541272.9057    27   560736.0000      Cuts: 74      124    3.47%
      0     0   546275.2247    20   560736.0000      Cuts: 36      138    2.58%
      0     0   550361.8191    31   560736.0000      Cuts: 23      154    1.85%
      0     0   558581.9051     3   560736.0000      Cuts: 61      165    0.38%
Detecting symmetries...
      0     0        cutoff         560736.0000                    173    0.00%
Elapsed time = 0.06 sec. (40.84 ticks, tree = 0.01 MB, solutions = 1)

Clique cuts applied:  2
Cover cuts applied:  23
Implied bound cuts applied:  2
Flow cuts applied:  52
Mixed integer rounding cuts applied:  32
Flow path cuts applied:  2
Multi commodity flow cuts applied:  2
Lift and project cuts applied:  5
Gomory fractional cuts applied:  24

Root node processing (before b&c):
  Real time             =    0.06 sec. (40.87 ticks)
Sequential b&c:
  Real time             =    0.00 sec. (0.00 ticks)
                          ------------
Total (root+branch&cut) =    0.06 sec. (40.87 ticks)

--- MIP status (101): integer optimal solution.
--- Cplex Time: 0.06sec (det. 40.87 ticks)

--- Fixing integer variables and solving final LP...

Version identifier: 20.1.0.0 | 2020-11-10 | 9bedb6d68
CPXPARAM_Advance                                 2
CPXPARAM_Threads                                 1
CPXPARAM_MIP_Display                             4
CPXPARAM_TimeLimit                               3600
CPXPARAM_MIP_Tolerances_AbsMIPGap                0
CPXPARAM_MIP_Tolerances_MIPGap                   0
Tried aggregator 1 time.
LP Presolve eliminated 450 rows and 601 columns.
All rows and columns eliminated.
Presolve time = 0.00 sec. (0.23 ticks)

--- Fixed MIP status (1): optimal.
--- Cplex Time: 0.00sec (det. 0.41 ticks)


Proven optimal solution
MIP Solution:       560736.000000    (173 iterations, 0 nodes)
Final Solve:        560736.000000    (0 iterations)

Best possible:      560736.000000
Absolute gap:            0.000000
Relative gap:            0.000000

--- Reading solution for model master
*** Status: Normal completion
--- Job bchfcnet.gms Stop 02/09/22 15:12:26 elapsed 0:00:00.224
